Route #1: 4 43 3 14 50 35 38 52 13 24 30 6 55 31 61 60 49 25 9 28 46
Route #2: 26 57 51 11 62 33 23 48 15 54 44 40 36 19 10 5 39 2 32 42 37
Route #3: 34 16 59 7 22 41 58 29 53 56 63 18 47
Route #4: 27 20 8 45
Route #5: 1 12
Route #6: 21 17
Route #7: 
Route #8: 
Route #9: 
cost 2242.114570247597
